
Gurobi 7.5.2 (linux64) logging started Thu Mar 21 01:07:01 2019

Changed value of parameter LogFile to /home/aniket/python_scripts/Plasmids/exp/2019-03-21__iterative_with_questionable/output/sample_116/1.5.1/nplasmids_1/MILP/m.log
   Prev: gurobi.log  Default: 
Changed value of parameter TimeLimit to 2400.0
   Prev: 1e+100  Min: 0.0  Max: 1e+100  Default: 1e+100
Optimize a model with 3359 rows, 976 columns and 13914 nonzeros
Variable types: 259 continuous, 717 integer (373 binary)
Coefficient statistics:
  Matrix range     [2e-01, 1e+06]
  Objective range  [3e-04, 6e+05]
  Bounds range     [1e+00, 1e+00]
  RHS range        [8e-01, 1e+06]
Presolve removed 2700 rows and 605 columns
Presolve time: 0.02s
Presolved: 659 rows, 371 columns, 2181 nonzeros
Variable types: 79 continuous, 292 integer (214 binary)
Found heuristic solution: objective -182904.2691

Root relaxation: objective -6.236273e+05, 479 iterations, 0.01 seconds

    Nodes    |    Current Node    |     Objective Bounds      |     Work
 Expl Unexpl |  Obj  Depth IntInf | Incumbent    BestBd   Gap | It/Node Time

     0     0 -623627.30    0   76 -182904.27 -623627.30   241%     -    0s
     0     0 -618770.10    0   23 -182904.27 -618770.10   238%     -    0s
H    0     0                    -267101.3734 -618770.10   132%     -    0s
     0     0 -617772.74    0   13 -267101.37 -617772.74   131%     -    0s
     0     0 -617572.70    0   21 -267101.37 -617572.70   131%     -    0s
H    0     0                    -274178.2066 -617572.70   125%     -    0s
     0     0 -617572.51    0   17 -274178.21 -617572.51   125%     -    0s
     0     0 -617565.83    0    2 -274178.21 -617565.83   125%     -    0s
H    0     0                    -607736.8443 -617565.83  1.62%     -    0s
     0     0 -617560.22    0    2 -607736.84 -617560.22  1.62%     -    0s
H    0     0                    -607737.5710 -617560.22  1.62%     -    0s
*    0     0               0    -617553.9776 -617553.98  0.00%     -    0s

Explored 1 nodes (744 simplex iterations) in 0.07 seconds
Thread count was 4 (of 4 available processors)

Solution count 6: -617554 -607738 -607737 ... -182904

Optimal solution found (tolerance 1.00e-04)
Best objective -6.175539776380e+05, best bound -6.175539776380e+05, gap 0.0000%

Gurobi 7.5.2 (linux64) logging started Thu Mar 21 01:07:01 2019

Changed value of parameter LogFile to /home/aniket/python_scripts/Plasmids/exp/2019-03-21__iterative_with_questionable/output/sample_116/1.5.1/nplasmids_1/MILP/m.log
   Prev: gurobi.log  Default: 
Changed value of parameter TimeLimit to 2400.0
   Prev: 1e+100  Min: 0.0  Max: 1e+100  Default: 1e+100
Optimize a model with 2999 rows, 871 columns and 11722 nonzeros
Variable types: 232 continuous, 639 integer (331 binary)
Coefficient statistics:
  Matrix range     [1e-01, 1e+06]
  Objective range  [3e-04, 2e+05]
  Bounds range     [1e+00, 1e+00]
  RHS range        [1e-01, 1e+06]
Presolve removed 2348 rows and 503 columns
Presolve time: 0.01s
Presolved: 651 rows, 368 columns, 2155 nonzeros
Variable types: 78 continuous, 290 integer (213 binary)
Found heuristic solution: objective -27889.24653

Root relaxation: objective -2.828305e+05, 186 iterations, 0.00 seconds

    Nodes    |    Current Node    |     Objective Bounds      |     Work
 Expl Unexpl |  Obj  Depth IntInf | Incumbent    BestBd   Gap | It/Node Time

*    0     0               0    -282830.4622 -282830.46  0.00%     -    0s

Explored 0 nodes (186 simplex iterations) in 0.02 seconds
Thread count was 4 (of 4 available processors)

Solution count 2: -282830 -27889.2 

Optimal solution found (tolerance 1.00e-04)
Best objective -2.828304622447e+05, best bound -2.828304622447e+05, gap 0.0000%

Gurobi 7.5.2 (linux64) logging started Thu Mar 21 01:07:01 2019

Changed value of parameter LogFile to /home/aniket/python_scripts/Plasmids/exp/2019-03-21__iterative_with_questionable/output/sample_116/1.5.1/nplasmids_1/MILP/m.log
   Prev: gurobi.log  Default: 
Changed value of parameter TimeLimit to 2400.0
   Prev: 1e+100  Min: 0.0  Max: 1e+100  Default: 1e+100
Optimize a model with 2999 rows, 871 columns and 11722 nonzeros
Variable types: 232 continuous, 639 integer (331 binary)
Coefficient statistics:
  Matrix range     [1e-01, 1e+06]
  Objective range  [3e-04, 2e+05]
  Bounds range     [1e+00, 1e+00]
  RHS range        [1e-01, 1e+06]
Presolve removed 2345 rows and 503 columns
Presolve time: 0.01s
Presolved: 654 rows, 368 columns, 2165 nonzeros
Variable types: 78 continuous, 290 integer (213 binary)
Found heuristic solution: objective -27889.24653

Root relaxation: objective -2.691220e+05, 267 iterations, 0.00 seconds

    Nodes    |    Current Node    |     Objective Bounds      |     Work
 Expl Unexpl |  Obj  Depth IntInf | Incumbent    BestBd   Gap | It/Node Time

     0     0 -269121.97    0  104 -27889.247 -269121.97   865%     -    0s
H    0     0                    -39538.59574 -269121.97   581%     -    0s
H    0     0                    -260270.2037 -269121.97  3.40%     -    0s
H    0     0                    -267640.8747 -269121.97  0.55%     -    0s
     0     0     cutoff    0      -267640.87 -267640.87  0.00%     -    0s

Cutting planes:
  Flow cover: 1

Explored 1 nodes (330 simplex iterations) in 0.03 seconds
Thread count was 4 (of 4 available processors)

Solution count 4: -267641 -260270 -39538.6 -27889.2 

Optimal solution found (tolerance 1.00e-04)
Best objective -2.676408746794e+05, best bound -2.676408746794e+05, gap 0.0000%

Gurobi 7.5.2 (linux64) logging started Thu Mar 21 01:07:02 2019

Changed value of parameter LogFile to /home/aniket/python_scripts/Plasmids/exp/2019-03-21__iterative_with_questionable/output/sample_116/1.5.1/nplasmids_1/MILP/m.log
   Prev: gurobi.log  Default: 
Changed value of parameter TimeLimit to 2400.0
   Prev: 1e+100  Min: 0.0  Max: 1e+100  Default: 1e+100
Optimize a model with 2961 rows, 860 columns and 11497 nonzeros
Variable types: 229 continuous, 631 integer (327 binary)
Coefficient statistics:
  Matrix range     [1e-01, 1e+06]
  Objective range  [3e-04, 2e+05]
  Bounds range     [1e+00, 1e+00]
  RHS range        [1e-01, 1e+06]
Presolve removed 2336 rows and 495 columns
Presolve time: 0.02s
Presolved: 625 rows, 365 columns, 2063 nonzeros
Variable types: 77 continuous, 288 integer (212 binary)
Found heuristic solution: objective -5676.786523

Root relaxation: objective -1.191108e+04, 445 iterations, 0.00 seconds

    Nodes    |    Current Node    |     Objective Bounds      |     Work
 Expl Unexpl |  Obj  Depth IntInf | Incumbent    BestBd   Gap | It/Node Time

     0     0 -11911.084    0   81 -5676.7865 -11911.084   110%     -    0s
     0     0 -9742.2263    0   76 -5676.7865 -9742.2263  71.6%     -    0s
     0     0 -7834.9712    0   35 -5676.7865 -7834.9712  38.0%     -    0s
     0     0 -7831.4362    0   23 -5676.7865 -7831.4362  38.0%     -    0s
     0     0 -7753.4308    0   28 -5676.7865 -7753.4308  36.6%     -    0s
H    0     0                    -7627.931444 -7753.4308  1.65%     -    0s
     0     0 -7746.7820    0   35 -7627.9314 -7746.7820  1.56%     -    0s
     0     0 -7680.0216    0    5 -7627.9314 -7680.0216  0.68%     -    0s
     0     0 -7680.0216    0    5 -7627.9314 -7680.0216  0.68%     -    0s
     0     0 -7679.5606    0    5 -7627.9314 -7679.5606  0.68%     -    0s
*    0     0               0    -7628.972665 -7628.9727  0.00%     -    0s

Explored 1 nodes (912 simplex iterations) in 0.07 seconds
Thread count was 4 (of 4 available processors)

Solution count 3: -7628.97 -7627.93 -5676.79 
No other solutions better than -7628.97

Optimal solution found (tolerance 1.00e-04)
Best objective -7.628972664619e+03, best bound -7.628972664619e+03, gap 0.0000%

Gurobi 7.5.2 (linux64) logging started Thu Mar 21 01:07:02 2019

Changed value of parameter LogFile to /home/aniket/python_scripts/Plasmids/exp/2019-03-21__iterative_with_questionable/output/sample_116/1.5.1/nplasmids_1/MILP/m.log
   Prev: gurobi.log  Default: 
Changed value of parameter TimeLimit to 2400.0
   Prev: 1e+100  Min: 0.0  Max: 1e+100  Default: 1e+100
Optimize a model with 2920 rows, 848 columns and 11260 nonzeros
Variable types: 226 continuous, 622 integer (322 binary)
Coefficient statistics:
  Matrix range     [1e-01, 1e+06]
  Objective range  [3e-04, 2e+05]
  Bounds range     [1e+00, 1e+00]
  RHS range        [1e-01, 1e+06]
Presolve removed 2342 rows and 493 columns
Presolve time: 0.02s
Presolved: 578 rows, 355 columns, 1882 nonzeros
Variable types: 75 continuous, 280 integer (280 binary)

Root relaxation: objective -4.535272e+03, 403 iterations, 0.00 seconds

    Nodes    |    Current Node    |     Objective Bounds      |     Work
 Expl Unexpl |  Obj  Depth IntInf | Incumbent    BestBd   Gap | It/Node Time

     0     0 -4535.2718    0   55          - -4535.2718      -     -    0s
     0     0 -3630.2641    0   54          - -3630.2641      -     -    0s
     0     0 -3601.5683    0   51          - -3601.5683      -     -    0s
     0     0 -3601.3289    0   51          - -3601.3289      -     -    0s
     0     0 -3509.6546    0   84          - -3509.6546      -     -    0s
     0     0 -3485.5345    0   78          - -3485.5345      -     -    0s
     0     0 -3460.3481    0    2          - -3460.3481      -     -    0s
     0     0 -3457.4410    0   18          - -3457.4410      -     -    0s
     0     0 -3457.2239    0    4          - -3457.2239      -     -    0s
     0     0 -3452.6574    0    2          - -3452.6574      -     -    0s
     0     0 -3451.4795    0    2          - -3451.4795      -     -    0s
     0     0 -3447.6143    0    2          - -3447.6143      -     -    0s
     0     0 -3447.6143    0    2          - -3447.6143      -     -    0s
H    0     0                    -3396.686657 -3447.6143  1.50%     -    0s
H    0     0                    -3444.935217 -3447.6143  0.08%     -    0s
     0     0 -3447.6143    0    2 -3444.9352 -3447.6143  0.08%     -    0s

Cutting planes:
  Gomory: 8
  Cover: 45
  Implied bound: 4
  Clique: 13
  MIR: 3
  Flow cover: 7
  Zero half: 2

Explored 1 nodes (613 simplex iterations) in 0.08 seconds
Thread count was 4 (of 4 available processors)

Solution count 2: -3444.94 -3396.69 

Optimal solution found (tolerance 1.00e-04)
Best objective -3.444935216844e+03, best bound -3.444935216844e+03, gap 0.0000%

Gurobi 7.5.2 (linux64) logging started Thu Mar 21 01:07:02 2019

Changed value of parameter LogFile to /home/aniket/python_scripts/Plasmids/exp/2019-03-21__iterative_with_questionable/output/sample_116/1.5.1/nplasmids_1/MILP/m.log
   Prev: gurobi.log  Default: 
Changed value of parameter TimeLimit to 2400.0
   Prev: 1e+100  Min: 0.0  Max: 1e+100  Default: 1e+100
Optimize a model with 2879 rows, 836 columns and 11026 nonzeros
Variable types: 223 continuous, 613 integer (317 binary)
Coefficient statistics:
  Matrix range     [1e-01, 1e+06]
  Objective range  [3e-04, 2e+05]
  Bounds range     [1e+00, 1e+00]
  RHS range        [1e-01, 1e+06]
Presolve removed 2338 rows and 492 columns
Presolve time: 0.01s
Presolved: 541 rows, 344 columns, 1708 nonzeros
Variable types: 73 continuous, 271 integer (271 binary)
Found heuristic solution: objective -592.4985132

Root relaxation: objective -3.770856e+03, 284 iterations, 0.00 seconds

    Nodes    |    Current Node    |     Objective Bounds      |     Work
 Expl Unexpl |  Obj  Depth IntInf | Incumbent    BestBd   Gap | It/Node Time

     0     0 -3770.8558    0   34 -592.49851 -3770.8558   536%     -    0s
     0     0 -2836.9525    0   10 -592.49851 -2836.9525   379%     -    0s
     0     0 -2834.1770    0   10 -592.49851 -2834.1770   378%     -    0s
     0     0 -2540.2318    0   17 -592.49851 -2540.2318   329%     -    0s
     0     0 -2357.7455    0    6 -592.49851 -2357.7455   298%     -    0s
     0     0 -1779.4906    0   17 -592.49851 -1779.4906   200%     -    0s
H    0     0                    -1040.056719 -1779.4906  71.1%     -    0s
     0     0 -1071.4843    0    2 -1040.0567 -1071.4843  3.02%     -    0s
     0     0 -1067.8408    0    2 -1040.0567 -1067.8408  2.67%     -    0s
*    0     0               0    -1041.097940 -1041.0979  0.00%     -    0s

Explored 1 nodes (416 simplex iterations) in 0.04 seconds
Thread count was 4 (of 4 available processors)

Solution count 3: -1041.1 -1040.06 -592.499 

Optimal solution found (tolerance 1.00e-04)
Best objective -1.041097939905e+03, best bound -1.041097939905e+03, gap 0.0000%

Gurobi 7.5.2 (linux64) logging started Thu Mar 21 01:07:02 2019

Changed value of parameter LogFile to /home/aniket/python_scripts/Plasmids/exp/2019-03-21__iterative_with_questionable/output/sample_116/1.5.1/nplasmids_1/MILP/m.log
   Prev: gurobi.log  Default: 
Changed value of parameter TimeLimit to 2400.0
   Prev: 1e+100  Min: 0.0  Max: 1e+100  Default: 1e+100
Optimize a model with 2836 rows, 824 columns and 10785 nonzeros
Variable types: 220 continuous, 604 integer (312 binary)
Coefficient statistics:
  Matrix range     [1e-01, 1e+06]
  Objective range  [3e-04, 2e+05]
  Bounds range     [1e+00, 1e+00]
  RHS range        [1e-01, 1e+06]
Presolve removed 1086 rows and 0 columns
Presolve time: 0.00s

Explored 0 nodes (0 simplex iterations) in 0.00 seconds
Thread count was 1 (of 4 available processors)

Solution count 0

Model is infeasible or unbounded
Best objective -, best bound -, gap -
Presolve removed 1086 rows and 0 columns
Presolve time: 0.00s

Explored 0 nodes (0 simplex iterations) in 0.00 seconds
Thread count was 1 (of 4 available processors)

Solution count 0

Model is infeasible
Best objective -, best bound -, gap -

Computing Irreducible Inconsistent Subsystem (IIS)...

      Constraints           Bounds       Runtime
     Min       Max       Min      Max
------------------------------------------------
        0     2408         0      512         0s
       77       77         0        0         2s

IIS computed: 77 constraints, 0 bounds
IIS runtime: 2.20 seconds
Warning: linear constraint 0 and linear constraint 1 have the same name "extr_ubd"
